workspace_BA/ba-solver/src/main/resources/input_graphs/reference_clu_del/bara_alb_n_80_m_2_8.gr
p td 80 156
0 2
0 5
0 6
0 8
0 12
0 30
0 54
0 70
1 2
1 3
1 4
1 9
1 11
1 14
1 20
1 23
1 33
1 47
1 57
1 62
1 63
1 67
1 74
2 3
2 4
2 5
2 6
2 7
2 8
2 9
2 10
2 12
2 13
2 17
2 18
2 21
2 24
2 26
2 28
2 29
2 31
2 32
2 38
2 39
2 51
2 53
2 55
2 58
2 65
2 78
4 7
4 25
4 36
4 40
4 62
5 10
5 17
5 77
6 61
7 11
7 15
7 71
8 15
8 16
8 20
8 22
8 23
8 34
8 38
8 43
8 49
8 74
8 75
9 35
9 64
10 19
10 44
10 45
10 55
10 58
10 59
10 61
11 16
11 22
11 27
12 13
12 30
12 56
13 14
13 21
13 37
13 53
14 19
14 26
14 28
14 34
14 40
14 41
14 63
14 66
14 75
16 31
17 18
17 32
17 42
18 47
18 76
19 42
19 68
20 29
20 49
21 72
22 46
23 24
23 57
23 67
23 71
24 25
26 27
26 45
26 46
26 50
26 79
29 35
31 43
31 68
31 73
32 33
32 44
32 76
34 36
35 37
36 39
36 52
36 64
37 50
37 69
38 48
39 41
39 54
40 79
41 52
45 51
45 59
46 48
46 65
47 56
53 73
54 60
56 69
58 60
59 66
61 70
62 78
66 72
76 77
